cliques=[{1,0},{39,1},{1,2},{39,3},{18,4},{44,5},{44,6},{44,7},{44,8},{44,9},{39,10},{1,11},{23,12},{1,13},{23,14},{3,15},{1,16},{23,17},{1,18},{23,19},{3,20},{29,21},{44,22},{1,23},{11,24},{1,25},{11,26},{18,27},{1,28},{11,29},{1,30},{11,31},{3,32},{18,33},{1,34},{5,35},{1,36},{37,5},{3,38},{39,1},{40,22},{1,41},{42,4},{3,43},{44,5},{11,45},{44,46}];
nr_cliques=47;
